units           real
atom_style      full
boundary        p p p


pair_style      lj/cut/coul/long 12.0
pair_modify     tail yes mix geometric
bond_style      harmonic
angle_style     harmonic
dihedral_style  opls

kspace_style    ewald 1.0e-5
#special_bonds   lj/coul 0.0 0.0 0.5

neighbor        2.0 bin
neigh_modify    every 1 delay 0 check yes

read_data       buate_after_min.data

group           mobile union all

#minimize 1.0e-8 1.0e-10 400000 400000
#write_data buate_after_min.data

thermo_style    custom step time  etotal ke pe temp press vol density
#thermo_modify   line multi
thermo          2000
thermo_modify   flush yes
timestep 1.0 


## Equil NPT ##
fix      NPT  all npt temp 175 175 100 iso 1 1 1000
restart 1000000 liqbut1.restart

#fix      NPT  all npt temp 160 160 50 iso 1 1 500
dump myDump all atom 2000 butane_npt.lammpstrj

run 5000000
write_data ethanol_after_npt.data



#fix 1 all nvt temp 300 300 100# iso 1.0 1.0 1000.0
#dump            DUMPxyz all xyz 1 but1_clms_20ps.xyz

#run 500000
