&GLOBAL

  ! the project name is made part of most output files... useful to keep order 

  PRINT_LEVEL medium

  PROJECT Butane_solv_250K 

  ! various runtypes (energy, geo_opt, etc.) available.

  RUN_TYPE MD 

  ! limit the runs to 5min

  !WALLTIME 86000

  ! reduce the amount of IO



            

&END GLOBAL



&MOTION

  &MD

    ENSEMBLE NVT

    STEPS 40000

    TIMESTEP 0.5

    TEMPERATURE 160    

    &THERMOSTAT

     REGION MASSIVE

     TYPE GLE

     &GLE

       NDIM 5

       A_SCALE [ps^-1] 1.00

       A_LIST    1.859575861256e+2   2.726385349840e-1   1.152610045461e+1  -3.641457826260e+1   2.317337581602e+2

       A_LIST   -2.780952471206e-1   8.595159180871e-5   7.218904801765e-1  -1.984453934386e-1   4.240925758342e-1

       A_LIST   -1.482580813121e+1  -7.218904801765e-1   1.359090212128e+0   5.149889628035e+0  -9.994926845099e+0

       A_LIST   -1.037218912688e+1   1.984453934386e-1  -5.149889628035e+0   2.666191089117e+1   1.150771549531e+1

       A_LIST    2.180134636042e+2  -4.240925758342e-1   9.994926845099e+0  -1.150771549531e+1   3.095839456559e+2

     &END GLE

   &END THERMOSTAT

 

  &END MD

  &PRINT

    &FORCES

      &EACH

        MD 1

      &END EACH

    &END FORCES

    &TRAJECTORY MEDIUM

      &EACH

        MD 1

      &END EACH

    &END TRAJECTORY

    &RESTART

      BACKUP_COPIES 3

      &EACH

        MD 1000

      &END EACH

    &END RESTART

  &END PRINT

&END MOTION







&FORCE_EVAL

  ! the electronic structure part of CP2K is named Quickstep

  METHOD QS

  STRESS_TENSOR ANALYTICAL

  &PRINT

    &FORCES ON

    &END FORCES

  &END PRINT

  

  &SUBSYS

      &CELL 

        ! unit cells that are orthorhombic are more efficient with CP2K

        ABC [angstrom] 10.0 10.0 10.0

      &END CELL

  

      ! atom coordinates can be in the &COORD section,

      ! or provided as an external file.

      &TOPOLOGY

        COORD_FILE_NAME but6_after_min_nvt_1ns.xyz

        COORD_FILE_FORMAT XYZ

      &END

  

      ! MOLOPT basis sets are fairly costly,

      ! but in the 'DZVP-MOLOPT-SR-GTH' available for all elements

      ! their contracted nature makes them suitable

      ! for condensed and gas phase systems alike.

      &KIND H                              

        BASIS_SET DZVP-GTH       

        POTENTIAL GTH-PBE-q1             

      &END KIND

      &KIND C

        BASIS_SET DZVP-GTH

        POTENTIAL GTH-PBE-q4

      &END KIND

      &KIND O

        BASIS_SET DZVP-GTH

        POTENTIAL GTH-PBE-q6

      &END KIND

      &KIND Ti

        BASIS_SET DZVP-GTH

        POTENTIAL GTH-PBE-q12

      &END KIND

    &END SUBSYS

  

  

  

    

  

  

  &DFT

    ! basis sets and pseudopotential files can be found in cp2k/data

    BASIS_SET_FILE_NAME HFX_BASIS

    POTENTIAL_FILE_NAME GTH_POTENTIALS     

    PLUS_U_METHOD MULLIKEN

    UKS .TRUE.       





    &MGRID

       ! PW cutoff ... depends on the element (basis) too small cutoffs lead to the eggbox effect.

       ! certain calculations (e.g. geometry optimization, vibrational frequencies,

       ! NPT and cell optimizations, need higher cutoffs)

      REL_CUTOFF 60

      NGRIDS 5

      CUTOFF 800

      

    &END MGRID



    &QS

       ! use the GPW method (i.e. pseudopotential based calculations with the Gaussian and Plane Waves scheme).

       !METHOD GPW 

       ! default threshold for numerics ~ roughly numerical accuracy of the total energy per electron,

       ! sets reasonable values for all other thresholds.

       EPS_DEFAULT 1.0E-13 

       ! used for MD, the method used to generate the initial guess.

       

    &END QS

    

    &XC



      &VDW_POTENTIAL

         POTENTIAL_TYPE PAIR_POTENTIAL 

         &PAIR_POTENTIAL

         REFERENCE_FUNCTIONAL PBE

            PARAMETER_FILE_NAME dftd3.dat

            TYPE DFTD3            

            

         &END PAIR_POTENTIAL

      &END VDW_POTENTIAL

      

      ! use a PBE functional 

      &XC_FUNCTIONAL PBE

      &END XC_FUNCTIONAL

      ! adding Grimme's D3 correction (by default without C9 terms)   

      

    &END XC

    &SCF     

    

      EPS_SCF 1.0E-6 ! accuracy of the SCF procedure typically 1.0E-6 - 1.0E-7                       

      MAX_SCF 50

      SCF_GUESS RESTART ! can be used to RESTART an interrupted calculation

      

      &OUTER_SCF ! repeat the inner SCF cycle 10 times

        

        EPS_SCF 1.0E-6 ! must match the above

        MAX_SCF 15

      &END OUTER_SCF

      

      &OT

      

        ENERGY_GAP 0.1

        PRECONDITIONER FULL_SINGLE_INVERSE

        MINIMIZER CG

        ! an accurate preconditioner suitable also for larger systems

        ! the most robust choice (DIIS might sometimes be faster, but not as stable).

      

      &END OT

    &END SCF

   &END DFT

 &END FORCE_EVAL

 





































    









